\* Maximizacion_Beneficios_Publicidad *\
Maximize
Beneficio_Total: 50000 Oferta_('A',_'1') + 100000 Oferta_('B',_'1')
 + 100000 Oferta_('C',_'1') + 80000 Oferta_('D',_'1') + 5000 Oferta_('E',_'1')
 + 40000 Oferta_('F',_'1') + 90000 Oferta_('G',_'1') + 20000 Oferta_('H',_'1')
 + 15000 Oferta_('I',_'1') + 35000 Oferta_('J',_'1') + 45000 Oferta_('K',_'1')
 + 55000 Oferta_('L',_'1') + 65000 Oferta_('M',_'1') + 25000 Oferta_('N',_'1')
 + 12000 Oferta_('O',_'1') + 50000 Oferta_('P',_'1') + 40000 Oferta_('Q',_'1')
 + 60000 Oferta_('R',_'1') + 30000 Oferta_('S',_'1') + 22000 Oferta_('T',_'1')
 + 48000 Oferta_('U',_'1') + 52000 Oferta_('V',_'1') + 38000 Oferta_('W',_'1')
 + 28000 Oferta_('X',_'1') + 18000 Oferta_('Y',_'1')
Subject To
_C1: Oferta_('B',_'1') <= 1
_C2: Oferta_('A',_'1') + Oferta_('D',_'1') <= 1
_C3: 30 Oferta_('A',_'1') + 80 Oferta_('B',_'1') + 75 Oferta_('C',_'1')
 + 50 Oferta_('D',_'1') + 2 Oferta_('E',_'1') + 20 Oferta_('F',_'1')
 + 100 Oferta_('G',_'1') + 10 Oferta_('H',_'1') + 5 Oferta_('I',_'1')
 + 25 Oferta_('J',_'1') + 22 Oferta_('K',_'1') + 35 Oferta_('L',_'1')
 + 40 Oferta_('M',_'1') + 12 Oferta_('N',_'1') + 8 Oferta_('O',_'1')
 + 28 Oferta_('P',_'1') + 20 Oferta_('Q',_'1') + 30 Oferta_('R',_'1')
 + 15 Oferta_('S',_'1') + 10 Oferta_('T',_'1') + 24 Oferta_('U',_'1')
 + 26 Oferta_('V',_'1') + 19 Oferta_('W',_'1') + 14 Oferta_('X',_'1')
 + 9 Oferta_('Y',_'1') <= 200
Binaries
Oferta_('A',_'1')
Oferta_('B',_'1')
Oferta_('C',_'1')
Oferta_('D',_'1')
Oferta_('E',_'1')
Oferta_('F',_'1')
Oferta_('G',_'1')
Oferta_('H',_'1')
Oferta_('I',_'1')
Oferta_('J',_'1')
Oferta_('K',_'1')
Oferta_('L',_'1')
Oferta_('M',_'1')
Oferta_('N',_'1')
Oferta_('O',_'1')
Oferta_('P',_'1')
Oferta_('Q',_'1')
Oferta_('R',_'1')
Oferta_('S',_'1')
Oferta_('T',_'1')
Oferta_('U',_'1')
Oferta_('V',_'1')
Oferta_('W',_'1')
Oferta_('X',_'1')
Oferta_('Y',_'1')
End
